100
128
34
64
4
20
6
62
52
53
4
63
14
7
4
6
6
20
19
9
9
45
6
4
23
33
38
46
35
59
4
3
62
27
34
10
10
57
25
30
16
19
21
44
48
16
64
11
23
10
20
41
36
47
14
20
44
31
22
38
48
20
42
23
41
22
57
60
22
36
38
48
44
36
31
11
21
45
22
63
64
40
51
61
11
33
60
61
31
54
32
42
40
29
56
35
35
61
64
25
49
54